NNQBF
	
File :	
p cnf 2 2
1 0
2 0
	
Quantifier:	
 0
 1
[torch.DoubleTensor of size 2]

Formula:	
 1  0  1
 0  1  1
[torch.DoubleTensor of size 2x3]

Neural network model:	
nn.Sequential {
  [input -> (1) -> (2) -> (3) -> (4) -> output]
  (1): nn.Linear(2 -> 2)
  (2): nn.Sigmoid
  (3): nn.Linear(2 -> 1)
  (4): nn.Sigmoid
}
	
Running:	
Session 100:	
 1.0000  1.0000
 0.5552  0.4755
[torch.DoubleTensor of size 2x2]

2	1	
Training set: 	
 1  0
[torch.DoubleTensor of size 1x2]

 1  1
[torch.DoubleTensor of size 1x2]

 0.2776
[torch.DoubleTensor of size 1]

 0.4755
[torch.DoubleTensor of size 1]

1	1	
100% 	
Session 90:	
-1.0000  1.0000
 0.3263  0.4878
[torch.DoubleTensor of size 2x2]

1	-1	
Training set: 	
-1  0
[torch.DoubleTensor of size 1x2]

 0  0
[torch.DoubleTensor of size 1x2]

 0.3263
[torch.DoubleTensor of size 1]

1e-316 *
 1.8208
[torch.DoubleTensor of size 1]

1	0	
9% 	
Session 80:	
-1.0000  1.0000
 0.3263  0.4878
[torch.DoubleTensor of size 2x2]

1	-1	
Training set: 	
-1  0
[torch.DoubleTensor of size 1x2]

 0  0
[torch.DoubleTensor of size 1x2]

 0.3263
[torch.DoubleTensor of size 1]

1e-316 *
 1.8106
[torch.DoubleTensor of size 1]

1	0	
4% 	
Session 70:	
-1.0000  1.0000
 0.3263  0.4878
[torch.DoubleTensor of size 2x2]

1	-1	
Training set: 	
-1  0
[torch.DoubleTensor of size 1x2]

 0  0
[torch.DoubleTensor of size 1x2]

 0.3263
[torch.DoubleTensor of size 1]

1e-316 *
 1.8586
[torch.DoubleTensor of size 1]

1	0	
3% 	
Session 60:	
-1.0000  1.0000
 0.3263  0.4878
[torch.DoubleTensor of size 2x2]

1	-1	
Training set: 	
-1  0
[torch.DoubleTensor of size 1x2]

 0  0
[torch.DoubleTensor of size 1x2]

 0.3263
[torch.DoubleTensor of size 1]

1e-316 *
 1.8687
[torch.DoubleTensor of size 1]

1	0	
2% 	
Session 50:	
-1.0000  1.0000
 0.3263  0.4878
[torch.DoubleTensor of size 2x2]

1	-1	
Training set: 	
-1  0
[torch.DoubleTensor of size 1x2]

 0  0
[torch.DoubleTensor of size 1x2]

 0.3263
[torch.DoubleTensor of size 1]

1e-310 *
 6.9282
[torch.DoubleTensor of size 1]

1	0	
1% 	
Session 40:	
-1.0000  1.0000
 0.3263  0.4878
[torch.DoubleTensor of size 2x2]

1	-1	
Training set: 	
-1  0
[torch.DoubleTensor of size 1x2]

 0  0
[torch.DoubleTensor of size 1x2]

 0.3263
[torch.DoubleTensor of size 1]

1e-310 *
 6.9282
[torch.DoubleTensor of size 1]

1	0	
1% 	
Session 30:	
-1.0000  1.0000
 0.3263  0.4878
[torch.DoubleTensor of size 2x2]

1	-1	
Training set: 	
-1  0
[torch.DoubleTensor of size 1x2]

 0  0
[torch.DoubleTensor of size 1x2]

 0.3263
[torch.DoubleTensor of size 1]

1e-316 *
 1.8601
[torch.DoubleTensor of size 1]

1	0	
1% 	
Session 20:	
-1.0000  1.0000
 0.3263  0.4878
[torch.DoubleTensor of size 2x2]

1	-1	
Training set: 	
-1  0
[torch.DoubleTensor of size 1x2]

 0  0
[torch.DoubleTensor of size 1x2]

 0.3263
[torch.DoubleTensor of size 1]

1e-316 *
 1.8591
[torch.DoubleTensor of size 1]

1	0	
1% 	
Session 10:	
-1.0000  1.0000
 0.3263  0.4878
[torch.DoubleTensor of size 2x2]

1	-1	
Training set: 	
-1  0
[torch.DoubleTensor of size 1x2]

 0  0
[torch.DoubleTensor of size 1x2]

 0.3263
[torch.DoubleTensor of size 1]

1e-316 *
 1.8858
[torch.DoubleTensor of size 1]

1	0	
1% 	
